\Problem name: noname                                                           
\FICO Xpress v9.1.2, Community, written 15:56:19, Feb 28, 2024

Minimize
[ - 8 x0 * x1 - 8 x0 * x3 + 12 x1 * x3 - 6 x2^2 - 4 x2 * x3 + 4 x3^2 ] / 2

Subject To
R47: [ 8 x0^2 + 5 x1^2 + 8 x1 * x2 + 4 x1 * x3 + 2 x3^2 ] <= 1080 

Bounds
x0 <= 11 
x1 <= 14 
x2 <= 20 
x3 <= 16 

End
